NAME : portgen-30-103
COMMENT : portgen N=30, seed=103
TYPE : TSP
DIMENSION : 30
EDGE_WEIGHT_TYPE : EUC_2D
NODE_COORD_SECTION
1 2681 1225
2 234 452
3 19 2973
4 2310 2434
5 427 1702
6 2106 1473
7 1846 1680
8 2624 763
9 930 338
10 2947 3093
11 668 1496
12 1029 562
13 1672 1307
14 1097 769
15 2093 1054
16 1871 494
17 558 2382
18 1394 3091
19 2729 1052
20 82 360
21 1080 2050
22 1805 589
23 2748 2712
24 891 799
25 1478 2876
26 2514 1012
27 1138 1546
28 573 2187
29 667 1014
30 2220 90
